sing20150203.12
TTAA  53121 48698
99010 27856 02007 00106 26249 03008 92788 20013 34513
85515 17437 34507 70151 09425 06008 50586 05517 10506
40759 15328 11513 30969 30723 10517 25096 41127 08516
20243 53931 08524 15421 67932 09530 10655 81534 12525
88999
77999=
TTCC  5312/ 48698=
TTDD  5312/ 48698
11952 81550 22882 81341 33844 74956 44824 74334 55804
73727 66785 72128 77740 74132
21212 11953 09022 22916 07530 33882 11029 44866 12530
55833 14514 66816 14512 77781 20520 88764 21025 99740
21524=
